(declare-const X Int)
(declare-const Y Int)
(declare-const Z Int)
(declare-const mid Int)
(assert (not (or (or (<= X 0) (< Y 0)) (<= Z 0))))
(assert (or (and (>= X Y) (>= Y Z)) (and (>= Z Y) (>= Y X))))
(assert (= (mod Y 2) 0))
(assert (not (= (mod (div Y 2) 3) 1)))
(check-sat)
(model)
